
GUB cover cuts applied:  6
Cover cuts applied:  35
Mixed integer rounding cuts applied:  6
Zero-half cuts applied:  74
Gomory fractional cuts applied:  5

Root node processing (before b&c):
  Real time             =    0.57 sec. (500.92 ticks)
Parallel b&c, 4 threads:
  Real time             =    0.26 sec. (249.03 ticks)
  Sync time (average)   =    0.03 sec.
  Wait time (average)   =    0.00 sec.
                          ------------
Total (root+branch&cut) =    0.83 sec. (749.95 ticks)
Version identifier: 12.10.0.0 | 2019-11-26 | 843d4de
CPXPARAM_MIP_Interval                            10
CPXPARAM_MIP_Tolerances_AbsMIPGap                0.98999999999999999
Tried aggregator 2 times.
MIP Presolve eliminated 24947 rows and 24996 columns.
MIP Presolve modified 1 coefficients.
Aggregator did 81 substitutions.
Reduced MIP has 3679 rows, 2853 columns, and 11381 nonzeros.
Reduced MIP has 2853 binaries, 0 generals, 0 SOSs, and 0 indicators.
Presolve time = 0.04 sec. (36.26 ticks)
Probing fixed 32 vars, tightened 0 bounds.
Probing changed sense of 68 constraints.
Probing time = 0.01 sec. (4.15 ticks)
Tried aggregator 2 times.
Detecting symmetries...
MIP Presolve eliminated 270 rows and 198 columns.
Aggregator did 36 substitutions.
Reduced MIP has 3373 rows, 2619 columns, and 10422 nonzeros.
Reduced MIP has 2619 binaries, 0 generals, 0 SOSs, and 0 indicators.
Presolve time = 0.02 sec. (16.06 ticks)
Probing time = 0.00 sec. (3.13 ticks)
Clique table members: 6284.
MIP emphasis: balance optimality and feasibility.
MIP search method: dynamic search.
Parallel mode: deterministic, using up to 4 threads.
Root relaxation solution time = 0.02 sec. (20.31 ticks)

        Nodes                                         Cuts/
   Node  Left     Objective  IInf  Best Integer    Best Bound    ItCnt     Gap

      0     0       20.4167   371                     20.4167      561         
      0     0       19.6667   371                    Cuts: 49      945         
      0     0       19.3333   371                   Cuts: 163     1370         
*     0+    0                           17.0000       19.3333            13.73%
      0     0       19.3333   371       17.0000     Cuts: 138     1827   13.73%
      0     0       19.2831   371       17.0000     Cuts: 192     2376   13.43%
      0     0       19.2000   371       17.0000      Cuts: 58     2640   12.94%
Detecting symmetries...
      0     0       19.2000   371       17.0000     Cuts: 184     2818   12.94%
      0     0       19.2000   371       17.0000     Cuts: 156     3009   12.94%
      0     0       19.2000   371       17.0000     Cuts: 135     3140   12.94%
*     0+    0                           18.0000       19.2000             6.67%
      0     0       19.2000   371       18.0000  ZeroHalf: 14     3187    6.67%
      0     0       19.2000   371       18.0000     Cuts: 118     3347    6.67%
Detecting symmetries...
      0     2       19.2000   450       18.0000       19.2000     3347    6.67%
Elapsed time = 1.31 sec. (1006.07 ticks, tree = 0.02 MB, solutions = 2)
     10     3        cutoff             18.0000       19.1383     5183    6.32%
the number of Nodes = 20
